c :: WCTIME=9.41565
c :: command line :: ./optimal-finder cvc-add3-opt-bw3.cnf -minimal
c :: version :: 160
c :: reference filename :: cvc-add3-opt-bw3.cnf
c :: reference encoding :: 126
c i 4 7 3 6 13 16 12 15 22 25 21 24 0
c :: inputs :: 4 7 3 6 13 16 12 15 22 25 21 24 
c :: clause minimization :: 0
c :: assignments analyzed :: 396819
c :: reference encoding :: variables :: 27 :: clauses :: 126
c :: optimal encoding :: variables :: 12 :: clauses :: 1176
c :: optimal minimal encoding :: 1152
p cnf 28 1152
3 -7 -4 -6 0
7 -3 -4 -6 0
3 4 -6 7 0
4 -3 -7 -6 0
3 -7 4 6 0
3 7 -4 6 0
-3 -7 -4 6 0
4 -3 7 6 0
12 3 -15 13 4 16 0
-13 16 15 -7 -12 6 0
12 -13 15 -7 -16 6 0
12 16 -3 15 6 13 0
12 -13 15 -3 -16 6 0
-7 6 15 -16 13 -12 0
12 4 15 -16 7 13 0
3 12 -16 15 7 13 0
-13 16 15 -4 6 -12 0
4 12 15 -16 -6 13 0
7 12 -16 15 13 -6 0
3 12 -6 13 15 -16 0
12 13 -4 -16 6 -15 0
12 -6 13 -15 16 3 0
3 12 -15 -6 -16 -13 0
12 4 -13 -16 -15 7 0
12 -6 13 -15 16 7 0
12 -6 13 -15 16 4 0
12 7 -13 -16 -15 3 0
-7 -15 6 -16 -12 -13 0
12 -15 -7 6 -16 13 0
12 -15 -3 -16 6 13 0
-3 6 15 -16 -12 13 0
-15 16 -4 -12 6 13 0
12 16 -4 -13 6 -15 0
4 16 -13 -12 -15 7 0
4 16 -13 -12 -15 3 0
4 16 -12 -15 -6 -13 0
-15 7 -12 -16 4 13 0
-15 3 -16 -12 13 4 0
4 -6 -12 -16 -15 13 0
3 -15 -16 -6 13 -12 0
4 -13 15 -6 12 16 0
-13 4 15 -16 3 -12 0
12 3 -16 -13 -15 4 0
4 12 -16 -15 -13 -6 0
16 12 -4 15 6 13 0
12 -13 15 -4 -16 6 0
4 -13 15 -16 -6 -12 0
-7 -15 16 -12 6 13 0
12 4 -15 7 16 13 0
12 3 -15 13 7 16 0
12 16 -7 15 6 13 0
3 4 15 -12 13 16 0
3 7 15 -12 16 13 0
3 16 15 13 -6 -12 0
4 16 -12 13 15 -6 0
7 16 -12 -6 15 13 0
12 -15 -7 -13 6 16 0
-15 3 -16 -12 7 13 0
12 -15 -3 -13 6 16 0
3 4 -13 15 12 16 0
-3 -15 13 -12 6 16 0
3 -13 16 -15 -6 -12 0
7 4 -13 -16 15 -12 0
7 3 -12 -13 -15 16 0
7 -15 -12 16 -6 -13 0
3 12 -16 15 13 4 0
12 4 15 -13 7 16 0
7 3 -13 15 16 12 0
7 -13 15 -6 12 16 0
6 13 15 -4 -16 -12 0
3 -13 15 -16 -6 -12 0
-13 -15 -4 6 -16 -12 0
4 16 15 -12 13 7 0
3 7 -13 -16 -12 15 0
7 -13 15 -16 -12 -6 0
7 -15 -16 -12 -6 13 0
-13 16 15 -3 -12 6 0
7 12 -16 -13 -15 -6 0
3 12 -6 16 -13 15 0
-3 -15 6 -16 -12 -13 0
25 16 -21 24 -22 15 -13 0
12 25 -21 24 -22 15 -13 0
12 25 -21 24 -22 15 -16 0
22 13 24 -25 -15 21 16 0
22 13 -21 24 -25 -16 -12 0
22 13 -21 24 -25 15 -12 0
25 16 21 22 24 15 -13 0
25 12 21 22 24 -13 15 0
22 13 -21 24 -25 -16 15 0
21 13 24 -22 -25 -16 -12 0
-15 12 -25 22 24 21 13 0
12 22 21 -24 -25 15 -13 0
12 22 21 -24 -25 15 -16 0
22 16 21 -24 -25 -13 -12 0
22 16 21 -24 -25 15 -12 0
22 13 21 -24 -25 -16 -12 0
22 13 21 -24 -25 15 -16 0
25 12 21 22 24 -16 -13 0
25 12 21 22 24 -16 15 0
25 16 -21 24 -22 -13 -12 0
21 13 24 -22 -25 -16 15 0
21 13 24 -22 -25 -12 15 0
16 12 21 -25 24 22 13 0
22 13 21 -24 -15 25 12 0
22 16 21 -24 -15 25 12 0
21 13 24 -22 -15 25 12 0
25 -15 21 22 24 -16 -13 0
25 16 21 -22 -24 -12 -13 0
21 -15 24 -22 -25 -16 -13 0
12 13 21 -22 -24 -25 -15 0
12 -15 21 -22 -24 -25 16 0
12 16 24 -22 21 25 -15 0
12 22 21 -24 -25 -13 -16 0
12 22 -21 24 -25 -13 -16 0
12 21 24 -22 -25 -16 -13 0
25 13 -21 24 -22 -16 15 0
12 13 -21 22 -25 16 -24 0
12 16 21 -22 -24 -25 13 0
12 13 21 -24 22 25 16 0
25 13 21 22 24 15 -12 0
25 16 21 22 24 15 -12 0
22 16 21 -24 -15 25 13 0
-15 12 -25 22 24 21 16 0
12 21 24 -22 -25 -16 15 0
12 -24 15 -21 -22 -25 -16 0
12 22 -21 24 -25 -16 15 0
22 16 -21 -25 -15 13 -24 0
25 -15 21 22 24 -16 -12 0
12 13 -25 -15 22 -21 -24 0
22 13 21 -24 -25 15 -12 0
25 13 21 22 24 -16 -12 0
25 13 21 22 24 -16 15 0
-24 16 -21 -22 -25 -13 -12 0
25 16 21 -22 -24 15 -13 0
12 -24 -21 -22 -25 -16 -13 0
22 -15 -21 24 -25 -16 -12 0
12 16 -21 22 24 13 25 0
22 16 24 -21 -15 25 12 0
22 13 24 -21 -15 25 12 0
12 25 -21 -24 22 -13 -16 0
12 25 15 -21 -24 22 -13 0
25 13 -21 -24 22 15 -16 0
12 25 15 -21 -24 22 -16 0
25 16 -21 24 -15 22 13 0
25 16 24 -15 21 -22 13 0
25 13 -21 24 -22 -16 -12 0
25 13 -21 24 -22 15 -12 0
25 16 15 -21 -24 22 -12 0
12 21 24 -22 -25 -13 15 0
22 16 -21 24 -25 -13 15 0
12 22 -21 24 -25 15 -13 0
21 -15 24 -22 -25 -13 -12 0
21 -15 24 -22 -25 -16 -12 0
21 16 24 -22 -25 -13 -12 0
21 16 24 -22 -25 15 -13 0
25 16 -21 -15 -24 -22 12 0
12 16 24 -22 21 25 13 0
25 -15 21 -22 -24 -13 -12 0
25 -15 21 22 24 -13 -12 0
25 13 21 -22 -24 -16 -12 0
25 13 21 -22 -24 15 -12 0
25 13 21 -22 -24 15 -16 0
25 13 -21 -24 22 -16 -12 0
25 13 -21 -24 22 15 -12 0
12 25 21 -22 -24 15 -13 0
12 25 21 -22 -24 15 -16 0
12 25 -21 24 -22 -16 -13 0
12 25 21 -22 -24 -16 -13 0
25 16 -21 -24 22 -13 -12 0
22 -15 21 -24 -25 -16 -12 0
25 16 21 22 24 -13 -12 0
21 16 24 -22 -25 -12 15 0
22 -15 -21 24 -25 -13 -12 0
12 13 -21 24 -25 -22 -15 0
12 -15 -21 24 -25 -22 16 0
25 16 -21 24 -22 -12 15 0
-24 16 15 -21 -22 -25 -13 0
12 -24 15 -21 -22 -25 -13 0
-15 12 -21 -24 25 -22 13 0
25 -15 -21 -24 22 -12 -13 0
25 -15 -21 -24 22 -12 -16 0
25 13 -21 -24 12 -22 16 0
25 -15 -21 24 -22 -13 -12 0
25 -15 -21 24 -22 -16 -13 0
25 -15 21 -22 -24 -16 -12 0
25 -15 -21 24 -22 -12 -16 0
21 16 -15 -22 -24 -25 13 0
22 -15 -21 24 -25 -16 -13 0
12 13 24 -22 -25 -21 16 0
25 16 -21 -15 -24 -22 13 0
22 16 -21 24 -25 -12 -13 0
22 16 -21 24 -25 -12 15 0
25 16 21 -22 -24 15 -12 0
22 -15 21 -24 -25 -16 -13 0
-24 -15 -21 -22 -25 -13 -12 0
-24 -15 -21 -22 -25 -16 -12 0
25 -15 21 -22 -24 -13 -16 0
13 -24 15 -21 -22 -25 -16 0
25 -15 -21 -24 22 -16 -13 0
25 16 15 -21 -24 22 -13 0
-24 -15 -21 -22 -25 -16 -13 0
22 16 21 -24 -25 15 -13 0
-15 16 -21 24 -25 -22 13 0
-24 16 -21 -22 -25 15 -12 0
-24 13 -21 -22 -25 -12 15 0
-24 13 -21 -22 -25 -12 -16 0
22 -15 21 -24 -25 -12 -13 0
-15 12 -25 22 -21 -24 16 0
3 -15 21 -25 24 22 13 4 0
7 21 24 -22 16 25 13 -6 0
25 16 21 -22 -24 -7 -13 6 0
12 25 21 -22 -24 -13 6 -7 0
25 -15 21 -22 -24 6 -13 -7 0
22 13 -21 24 -25 -7 -16 6 0
22 13 -21 24 -25 -7 -12 6 0
22 13 -21 24 -25 -7 15 6 0
25 13 21 22 24 -4 6 -12 0
7 16 -21 24 -25 -22 13 -6 0
25 13 21 22 24 -4 6 -16 0
3 7 15 -22 24 21 -25 -16 0
7 3 24 -13 -25 -22 21 15 0
12 -3 24 -21 -25 15 22 6 0
12 22 -21 24 -25 -13 6 -3 0
-3 21 22 25 24 13 -16 6 0
-3 21 22 25 24 13 6 -12 0
-3 21 22 25 24 13 6 15 0
-3 22 24 25 21 12 -13 6 0
4 22 24 -6 -13 25 21 -16 0
4 21 25 -12 -6 22 -13 24 0
4 22 24 -6 15 25 21 -13 0
3 -15 -21 24 -25 -22 -6 13 0
16 -6 -21 24 -25 -22 -15 3 0
12 -6 -21 24 -25 -22 -15 3 0
7 -15 -21 24 -25 -22 -6 13 0
7 -15 -21 24 -25 -22 16 -6 0
12 -6 -21 24 -25 -22 -15 7 0
4 -6 -21 24 -25 -22 -15 13 0
16 -6 -21 24 -25 -22 -15 4 0
12 -6 -21 24 -25 -22 -15 4 0
7 22 24 -21 16 25 13 -6 0
7 22 -21 24 -6 25 13 12 0
7 -15 -21 24 22 25 13 -6 0
25 13 21 22 24 -16 -7 6 0
25 13 21 22 24 6 -12 -7 0
25 13 21 22 24 15 6 -7 0
21 -6 24 -22 -15 25 12 3 0
7 -15 24 -22 21 -6 25 12 0
21 -6 24 -22 -15 25 12 4 0
3 12 -21 22 24 25 13 4 0
4 25 -21 24 7 -22 -12 -13 0
4 25 -21 24 7 -22 -13 -16 0
4 12 22 -21 24 25 13 -6 0
25 13 21 22 24 15 6 -4 0
12 -24 -21 -22 -25 -4 -13 6 0
25 16 21 22 24 -7 -13 6 0
25 12 21 22 24 -13 -7 6 0
25 -15 21 22 24 -13 -7 6 0
12 25 -21 24 -22 -4 -13 6 0
22 -15 -21 24 -25 -4 -13 6 0
25 -15 -21 24 -22 -4 -13 6 0
4 25 -21 24 3 -22 15 -12 0
4 25 15 -21 24 -22 -6 -12 0
-3 22 24 25 21 12 15 6 0
3 7 -13 24 -22 25 -21 15 0
3 7 -21 24 25 -22 -12 -13 0
3 7 -13 24 -22 -16 25 -21 0
12 4 24 -25 21 22 13 7 0
21 16 24 -22 -25 -7 -13 6 0
12 21 24 -22 -25 -7 -13 6 0
12 -6 21 -25 24 22 13 4 0
25 16 -21 24 -22 -7 6 -13 0
12 25 -21 -22 -7 -13 24 6 0
25 -15 -21 24 -22 -7 6 -13 0
3 25 15 -21 24 -22 -6 -13 0
21 -15 24 -22 -25 -7 -13 6 0
3 -13 -6 -21 24 25 -22 -12 0
25 16 21 22 24 15 -7 6 0
3 25 -21 -22 -16 24 -6 -13 0
12 4 24 -25 21 22 13 3 0
3 22 24 -12 25 7 -16 21 0
7 21 22 -24 -25 -12 -6 -16 0
-15 -6 -25 13 22 -21 -24 3 0
3 -24 22 16 -25 -21 -6 -15 0
12 -6 -24 22 -25 -21 -15 3 0
22 -6 -21 -25 -15 13 -24 7 0
7 -24 22 -15 -25 -21 16 -6 0
7 12 -24 22 -25 -21 -15 -6 0
22 -6 -21 -25 -15 13 -24 4 0
16 -6 -21 -25 22 -15 -24 4 0
12 -6 -24 22 -25 -21 -15 4 0
4 22 -15 -25 24 21 -6 13 0
4 22 -15 24 -25 21 -6 16 0
12 -6 -25 24 22 21 -15 4 0
4 22 -15 24 -25 21 3 16 0
3 -15 21 -25 24 22 12 4 0
4 21 -15 -22 -24 -25 -6 13 0
3 7 -16 -22 -12 -25 21 24 0
12 -6 -25 22 -21 -24 16 7 0
7 21 16 -22 -24 -25 12 -6 0
4 16 -21 24 -25 -22 13 7 0
7 21 16 -22 -24 -25 4 13 0
4 21 -15 -25 24 22 7 16 0
-24 -15 -4 -13 -21 -22 -25 6 0
-24 16 -21 -22 -25 -4 6 -13 0
21 -15 24 -25 -22 -7 -12 6 0
4 12 21 -22 -24 -25 -6 -15 0
7 -15 24 -25 21 22 12 4 0
13 -24 -4 -21 -22 -25 6 -12 0
-24 13 -21 -22 -4 -25 15 6 0
7 21 25 22 24 15 -6 -13 0
7 21 22 -13 24 -6 25 -12 0
7 -13 -6 -16 22 21 25 24 0
-15 3 -21 24 -25 -22 13 4 0
3 -13 -6 22 -16 21 25 24 0
-24 13 -21 -22 -25 -4 -16 6 0
3 -13 -6 -12 24 21 22 25 0
3 21 22 -16 25 24 -12 -6 0
3 22 24 25 15 -12 21 -6 0
22 13 21 -24 -25 -4 6 15 0
3 21 22 -24 -25 -6 -16 -12 0
22 13 21 -24 -25 -4 6 -12 0
22 13 21 -24 -25 -4 -16 6 0
3 12 -25 24 21 22 13 -6 0
3 21 24 -25 16 22 -6 12 0
3 -15 21 -25 24 22 12 -6 0
3 21 24 16 -25 22 -6 13 0
3 -15 21 24 -25 22 13 -6 0
12 22 -21 24 -25 -16 -3 6 0
3 -13 -6 -16 21 -25 24 -22 0
3 21 24 -22 -16 -12 -6 -25 0
3 21 24 -25 -22 -16 -6 15 0
3 21 24 15 25 7 22 -13 0
4 21 24 25 15 7 22 -13 0
4 16 -21 24 -25 -22 7 -15 0
7 21 16 -25 24 22 13 4 0
7 -15 24 -25 21 22 13 4 0
12 4 24 -21 -25 -22 3 -15 0
12 4 24 -21 -25 -22 7 -15 0
4 22 24 25 7 -16 21 -13 0
4 22 24 25 7 -16 21 -12 0
4 21 24 25 15 7 22 -16 0
22 25 -21 24 -12 15 -13 -16 0
3 -15 -21 -25 22 13 -24 4 0
4 22 -21 -25 3 16 -24 -15 0
12 4 -21 -25 22 -24 3 -15 0
-24 25 -21 -22 -16 -12 -13 15 0
22 -6 24 -25 -15 21 13 7 0
7 -15 24 -25 21 22 -6 16 0
12 -6 -25 24 21 22 -15 7 0
25 13 21 -22 -24 -4 15 6 0
25 16 21 -22 -24 -4 15 6 0
12 25 21 -22 -24 -4 15 6 0
7 21 24 -22 13 12 25 -6 0
7 -13 -6 21 -25 -24 22 -16 0
7 -13 -6 -16 -25 21 -22 24 0
7 22 -21 24 -25 -16 -6 -13 0
21 13 24 -22 -25 -16 -4 6 0
21 13 24 -22 -25 -4 6 -12 0
21 13 24 -22 -25 -4 15 6 0
25 -15 -21 24 -22 -4 6 -16 0
25 -15 -21 24 -22 -4 6 -12 0
4 25 -21 24 7 -22 -13 15 0
25 -6 -21 -24 22 7 -13 -16 0
25 -6 -21 -24 22 7 -12 -13 0
25 -6 -21 -24 22 7 15 -13 0
7 3 -21 -16 25 -24 22 -13 0
7 3 -21 22 -12 25 -24 -13 0
3 22 -21 15 25 7 -24 -13 0
7 4 -21 -24 -16 25 22 -13 0
7 4 -21 -24 22 -13 25 -12 0
7 4 -21 -24 22 -13 25 15 0
-3 -15 24 -21 25 -22 -13 6 0
7 21 16 24 25 -22 4 13 0
4 21 24 -22 7 12 25 13 0
21 4 24 -22 13 25 -15 7 0
-3 -15 24 -21 25 -22 -16 6 0
25 -15 -21 24 -22 -7 6 -16 0
7 21 16 -22 -24 -25 -6 13 0
7 21 24 -22 16 25 13 3 0
3 7 24 -22 21 25 12 13 0
3 -15 24 -22 21 25 7 13 0
7 12 -24 21 -22 -25 13 -6 0
7 -15 -22 21 -24 -25 13 -6 0
-3 -15 24 -21 25 -22 -12 6 0
25 -15 -21 24 -22 -7 -12 6 0
12 7 -24 21 22 25 4 13 0
12 4 -24 21 22 25 16 7 0
7 21 22 -24 -15 25 12 4 0
7 21 25 -22 4 -24 15 -13 0
7 21 25 -22 -24 15 4 -16 0
7 21 25 -22 4 15 -12 -24 0
16 -6 -21 22 -25 13 -24 3 0
12 -6 -21 22 -25 13 -24 3 0
12 25 -21 24 -22 15 6 -3 0
21 25 24 -22 -13 -12 15 -16 0
25 16 21 22 24 -4 -13 6 0
25 12 21 22 24 -4 -13 6 0
25 -15 21 22 24 -13 6 -4 0
4 21 24 25 -13 22 7 -12 0
4 21 22 -24 13 25 16 3 0
12 3 -24 21 22 25 4 13 0
3 -15 21 -24 22 25 4 13 0
22 -6 21 -24 13 25 16 4 0
4 21 22 -24 13 25 12 -6 0
22 -6 21 -24 13 25 -15 4 0
-15 25 -7 21 -22 -24 -16 6 0
25 -15 21 -22 -24 -7 6 -12 0
7 -13 -6 -16 -24 25 -22 21 0
7 21 25 -22 -24 -13 -6 -12 0
7 21 25 -22 -24 -13 -6 15 0
3 16 -21 24 -25 -22 13 -6 0
3 -15 24 22 -25 21 13 7 0
7 -15 24 -25 21 22 3 16 0
3 -15 21 -25 24 22 12 7 0
12 3 -21 24 -25 -22 -15 7 0
3 21 24 -22 16 7 25 12 0
25 13 21 -22 -24 -4 -16 6 0
22 25 21 -24 -13 -12 -16 15 0
12 25 21 -22 -24 -4 -16 6 0
12 25 21 -22 -24 6 -13 -4 0
21 13 24 -22 -25 15 6 -3 0
21 13 24 -22 -25 15 -7 6 0
22 13 21 -24 -25 -16 -7 6 0
22 13 21 -24 -25 -7 -12 6 0
22 13 21 -24 -25 -7 6 15 0
16 -6 24 -22 21 25 12 3 0
7 21 24 16 -22 12 25 4 0
25 13 21 -22 -24 6 -4 -12 0
25 16 21 -22 -24 -4 -12 6 0
25 -15 21 -22 -24 6 -12 -4 0
7 -15 -21 24 -25 -22 3 16 0
12 -6 -21 24 -25 -22 13 4 0
12 4 -22 -25 24 -21 13 3 0
12 4 -22 -25 24 -21 13 7 0
3 22 -12 24 25 7 -13 21 0
3 4 -13 24 22 21 25 -12 0
7 3 24 -25 21 22 12 13 0
7 3 24 -25 21 22 12 16 0
25 -15 21 -22 -24 -16 -4 6 0
25 -15 21 -22 -24 -4 -13 6 0
12 -6 21 -25 24 22 13 7 0
7 21 16 -25 24 22 -6 12 0
22 16 21 -24 -25 6 -12 -3 0
-3 -24 -21 -22 -25 16 -12 6 0
22 -6 21 -24 13 25 -15 7 0
7 21 22 -24 -15 25 16 -6 0
7 -24 22 21 -15 25 -6 12 0
-13 15 -21 24 -22 -25 -16 -12 0
-3 -15 21 22 25 24 -13 6 0
-3 -15 21 22 25 24 -16 6 0
-3 -15 21 22 25 24 6 -12 0
7 -15 -22 21 -24 -25 13 4 0
7 -24 22 -25 21 -16 -12 4 0
4 -24 -21 -22 -25 -16 7 -12 0
3 7 -21 22 24 25 16 13 0
3 12 -21 24 22 25 7 13 0
3 -15 24 -21 22 25 7 13 0
4 21 24 25 15 7 22 -12 0
3 21 24 15 25 7 22 -12 0
-3 21 22 -24 13 -25 -16 6 0
-3 21 22 -24 13 -25 6 -12 0
-3 21 22 -24 -25 13 15 6 0
7 21 25 22 24 15 -6 -12 0
3 7 -22 -12 21 15 -25 24 0
-24 13 -21 -22 -25 -7 -16 6 0
4 22 24 -21 -6 25 13 16 0
12 22 -21 24 -25 -7 6 -16 0
7 4 24 -25 21 22 12 16 0
12 25 -3 -24 22 -21 -13 6 0
12 25 21 -22 -24 -13 6 -3 0
4 21 16 -22 -24 -25 13 -6 0
4 -6 -13 -12 24 -22 21 -25 0
4 21 24 -16 -25 -12 -6 -22 0
4 21 15 24 -22 -12 -6 -25 0
12 -3 21 -24 -25 22 -16 6 0
4 25 -22 24 -16 3 -21 -13 0
25 16 -21 24 -22 -7 6 15 0
12 25 15 -21 24 -22 -7 6 0
13 25 -7 21 -22 -24 15 6 0
12 -24 -21 -22 -25 -7 -16 6 0
7 -24 22 -25 21 -13 3 -16 0
7 -24 22 -25 21 -13 3 -12 0
3 7 -13 -24 -25 15 22 21 0
4 21 3 -24 -25 -13 22 -16 0
4 21 3 -24 -25 -13 22 -12 0
4 -24 -13 3 22 -25 15 21 0
4 22 24 -6 -21 -12 -13 -25 0
12 22 21 -24 -25 6 -16 -7 0
3 7 -21 22 24 -13 -25 -16 0
3 7 -21 -12 24 -16 22 -25 0
3 7 -21 22 24 -16 -25 15 0
12 21 24 -22 -25 -16 -7 6 0
12 25 -21 -24 22 6 -16 -3 0
12 25 -3 -24 22 -21 15 6 0
3 7 -22 24 -16 25 -21 -12 0
12 25 21 -22 -24 6 -16 -3 0
4 -6 -13 -24 -25 22 21 -16 0
4 22 -21 24 -16 -25 3 -13 0
7 25 -21 -22 -16 24 -6 -12 0
25 12 21 22 24 -16 6 -3 0
4 25 -21 24 3 22 13 16 0
25 12 21 22 24 -16 -7 6 0
25 13 -21 24 -22 -7 15 6 0
7 3 24 -13 -25 -22 21 -16 0
4 21 3 -22 -13 -25 24 -16 0
12 25 -21 24 -22 -4 -16 6 0
22 -15 21 -24 -25 -12 6 -7 0
7 3 -21 -24 25 -22 13 16 0
12 25 -21 -24 -22 3 7 16 0
3 -15 25 -21 -24 -22 7 16 0
7 -15 -21 -25 22 13 -24 4 0
21 -15 24 -22 4 25 7 12 0
4 22 -21 24 -16 -12 -6 -25 0
25 16 -21 24 -22 -7 -12 6 0
13 22 -4 -21 24 -25 15 6 0
21 -15 24 -22 -25 -4 -13 6 0
21 -15 24 -22 -25 -4 -16 6 0
21 -15 24 -22 -25 -4 -12 6 0
22 16 21 -24 -25 -7 6 -12 0
-3 21 24 -22 -25 13 -12 6 0
-15 24 -25 -21 -22 4 13 7 0
22 -15 -21 24 -25 6 -7 -16 0
3 4 -21 24 -25 -22 16 -15 0
21 13 24 -22 -25 -16 6 -3 0
22 -15 21 -24 -25 6 -16 -7 0
3 21 22 -16 25 24 15 7 0
7 21 25 -16 22 15 -6 24 0
7 21 25 24 -12 22 -6 -16 0
-3 21 24 -22 -25 16 -12 6 0
12 7 -21 -25 22 -24 -15 4 0
22 16 21 -24 -25 -12 -4 6 0
12 16 24 -22 21 25 3 4 0
4 -6 -13 -21 -12 25 -22 24 0
7 -15 -22 21 -24 -25 13 3 0
12 7 -22 21 -24 -25 3 -15 0
25 13 -21 24 -22 15 6 -3 0
12 -6 21 -22 -24 -25 -15 3 0
21 -6 -15 -22 -24 -25 13 3 0
3 21 24 16 -25 22 13 7 0
7 21 24 -22 16 -6 25 12 0
7 21 16 24 -25 22 -6 13 0
12 16 24 -22 21 25 -6 4 0
3 12 -24 21 22 25 -6 13 0
3 12 -24 21 22 25 -6 16 0
3 -15 21 -24 22 25 -6 12 0
7 -15 -21 24 22 25 -6 12 0
25 13 -21 -24 22 -16 6 -7 0
12 25 -21 -24 22 -7 -16 6 0
25 -15 -21 -24 22 6 -16 -7 0
7 4 -21 -25 22 16 -24 -15 0
3 -15 21 -24 22 13 25 -6 0
3 -15 21 -24 22 25 16 -6 0
-3 25 -21 24 -22 16 6 15 0
3 21 15 25 -22 -24 -6 -13 0
3 21 15 25 -22 -24 -6 -16 0
3 21 15 25 -22 -12 -24 -6 0
21 22 24 -13 -25 -16 -12 15 0
25 13 -21 24 -22 -7 -16 6 0
21 16 24 -22 -25 15 6 -3 0
7 21 25 -12 -22 15 -24 -6 0
3 7 21 -13 -16 24 22 25 0
25 13 21 -22 -24 6 -3 -12 0
-3 21 25 -22 -24 16 -12 6 0
-3 -15 21 -24 -22 25 6 -12 0
-3 25 -21 24 -22 13 6 -16 0
25 16 21 -22 -24 -12 -7 6 0
12 -15 22 -21 24 25 -6 3 0
25 16 -21 -24 22 15 6 -4 0
7 -15 -21 -25 22 -24 13 3 0
7 3 -21 -25 22 -24 16 -15 0
12 7 -21 -25 22 -24 -15 3 0
4 22 -13 -21 -16 7 -25 24 0
4 22 -21 7 24 -13 -25 -12 0
22 4 15 -21 7 -25 24 -13 0
12 4 -21 -25 22 13 -24 7 0
3 7 -21 22 -12 24 -13 -25 0
12 3 -24 21 22 25 7 13 0
12 22 21 -24 25 3 7 16 0
7 -24 22 -15 21 25 12 3 0
12 4 -24 21 22 25 16 3 0
3 -15 21 -24 22 25 4 12 0
12 21 24 -22 -25 -16 -3 6 0
3 21 22 -24 -25 -6 15 -13 0
3 21 22 -24 -25 -6 15 -16 0
3 21 22 -24 -25 -6 15 -12 0
7 -13 -6 21 -25 -24 15 22 0
7 21 22 -24 -25 -16 -6 15 0
7 21 22 -24 -25 -12 -6 15 0
4 -13 15 -6 -25 -24 22 21 0
4 21 15 22 -24 -25 -16 -6 0
4 21 22 -12 -6 -24 15 -25 0
22 16 -21 24 -25 -13 6 -4 0
3 7 15 -21 22 -13 -25 24 0
12 22 -21 24 -25 -13 6 -4 0
12 22 15 -21 24 -25 -4 6 0
22 16 -21 24 -25 -4 15 6 0
22 -6 21 -24 13 25 12 7 0
-15 -21 24 -25 -22 7 13 3 0
12 22 -21 24 -25 -4 -16 6 0
12 21 24 -22 -25 -4 -16 6 0
12 22 21 -24 -25 6 -16 -4 0
21 16 24 -25 22 13 4 3 0
4 21 24 16 -25 22 13 -6 0
21 4 15 -22 24 3 -25 -13 0
4 21 3 -22 -25 -13 -12 24 0
7 21 22 -24 -15 25 16 4 0
7 -15 22 24 -21 25 4 13 0
4 25 -21 24 7 22 16 -15 0
12 -15 24 -21 22 25 4 7 0
3 21 22 -24 -25 -6 -13 -12 0
25 -15 21 22 24 -4 -12 6 0
22 -15 -21 24 -25 -4 -12 6 0
3 21 24 16 25 -22 4 13 0
7 21 15 24 -22 -25 -6 -13 0
7 21 15 24 -22 -25 -16 -6 0
7 21 15 24 -22 -12 -6 -25 0
4 21 24 25 16 -22 -6 13 0
21 -15 24 -22 -25 -7 -16 6 0
3 7 15 -22 -25 -24 -21 -12 0
21 -15 24 -22 -25 -13 6 -3 0
3 21 22 -24 -25 -6 -13 -16 0
3 4 -13 24 22 21 25 15 0
3 21 24 15 25 4 -16 22 0
3 21 24 15 25 4 22 -12 0
25 -6 -21 -24 22 4 -12 -13 0
4 -24 22 25 -12 -6 -21 -16 0
25 -6 -21 -24 22 4 -12 15 0
3 -15 24 -21 25 22 16 7 0
25 16 -21 -24 22 -4 -13 6 0
25 16 -21 -24 22 6 -12 -4 0
3 22 24 25 4 -12 -16 21 0
25 13 -21 -24 22 -4 -16 6 0
12 25 -21 -24 22 -4 -16 6 0
25 -15 -21 -24 22 -4 -16 6 0
22 16 21 -24 -25 15 -7 6 0
22 -15 -21 24 -25 6 -3 -13 0
22 -15 -21 24 -25 -7 -13 6 0
21 13 24 -22 -25 -7 6 -12 0
3 4 21 -22 -24 -25 16 13 0
12 4 21 -22 -25 -24 3 13 0
4 21 -15 -24 -22 -25 13 3 0
21 -15 24 -22 25 4 3 12 0
7 -13 -6 -21 -12 22 -25 24 0
-3 21 25 -22 -24 13 15 6 0
-3 21 25 -22 -24 16 15 6 0
12 -3 -22 -24 21 25 15 6 0
7 22 15 -21 24 -25 -6 -13 0
-3 25 -21 24 -22 16 6 -12 0
4 -6 -13 -24 -25 22 21 -12 0
22 -15 21 -24 -25 6 -3 -13 0
22 -15 21 -24 -25 6 -13 -7 0
4 21 7 -22 -25 15 24 -13 0
7 4 15 24 -22 -25 -16 21 0
21 4 15 -22 -12 7 24 -25 0
-3 25 -21 24 -22 13 6 -12 0
-24 13 -21 -22 -25 -3 -16 6 0
12 -24 -21 -22 -25 -3 -16 6 0
-3 -15 -22 -25 -21 -24 -16 6 0
7 22 24 -21 16 25 4 13 0
12 25 -21 -24 22 6 15 -7 0
22 -6 -21 24 -15 25 13 4 0
3 -15 24 -21 22 25 4 13 0
7 21 -22 16 -24 -25 4 -15 0
12 7 -22 21 -24 -25 4 -15 0
-3 21 25 -22 -24 16 6 -13 0
4 21 -15 -22 -24 -25 16 -6 0
3 4 21 -24 -22 -25 16 -15 0
-3 21 25 -22 -24 13 -16 6 0
25 16 -21 -24 22 6 15 -7 0
12 4 21 -22 -24 -25 3 -15 0
7 -15 24 -21 22 25 3 12 0
12 21 24 -22 -25 -4 -13 6 0
12 -6 24 22 16 -21 25 3 0
22 -15 -21 24 -25 -7 -12 6 0
-3 25 -21 24 -22 16 -13 6 0
3 4 21 -22 -24 25 -12 -13 0
22 -15 21 -24 -25 -4 -13 6 0
3 -15 21 -25 24 22 16 -6 0
4 -6 -13 -22 -24 -12 21 25 0
7 22 15 -21 24 -25 -6 -12 0
12 22 21 -24 -25 -13 6 -3 0
12 -3 21 -24 -25 22 15 6 0
4 -6 -13 -22 -24 25 21 -16 0
3 4 21 -22 -24 25 -16 -13 0
12 -24 -21 -22 -25 -13 6 -3 0
-24 16 -21 -22 -25 6 -13 -3 0
13 -24 15 -21 -22 -25 6 -7 0
4 21 15 25 -22 -24 -6 -13 0
3 4 21 -22 -24 25 -13 15 0
3 22 24 25 4 -16 -13 21 0
7 21 25 -22 -24 -13 -12 4 0
21 -15 24 -22 -25 -16 6 -3 0
-3 -24 15 -21 -22 13 -25 6 0
-3 -24 -21 -22 -25 16 6 15 0
12 -3 -22 -21 -25 -24 15 6 0
12 21 24 -22 -25 -13 -3 6 0
25 12 21 22 24 -4 15 6 0
12 25 -21 24 -22 -4 15 6 0
-24 -15 -21 -22 -4 -25 -12 6 0
4 -24 -15 21 22 25 -6 12 0
-3 -15 -22 -25 -21 -24 -12 6 0
-3 -24 -21 -22 13 -25 -12 6 0
7 3 -21 22 -12 25 -24 -16 0
7 -24 22 -12 -25 3 21 -16 0
25 16 -21 -24 22 6 -13 -7 0
3 7 -21 -22 -25 -16 -24 -12 0
7 21 25 -22 4 -12 -16 -24 0
7 21 16 -22 -24 4 -25 12 0
4 21 -25 -22 -16 -12 3 24 0
7 -15 -21 25 -24 -22 3 13 0
3 -24 -21 25 -15 -22 4 13 0
3 22 -21 25 4 -24 -16 -13 0
3 22 -21 25 4 -24 -12 -16 0
3 22 -21 25 4 -24 15 -16 0
3 4 21 -22 -24 25 -12 -16 0
21 4 24 -22 13 25 12 3 0
25 -6 24 21 16 -22 13 3 0
25 -6 24 16 21 -22 -15 3 0
7 -24 -21 -22 -16 -25 -12 -6 0
7 12 -22 21 -24 -25 -15 -6 0
12 22 -21 24 25 13 7 4 0
22 -15 -21 24 -25 -12 6 -3 0
25 16 -7 21 -22 -24 15 6 0
4 21 7 -22 -13 -25 -12 24 0
21 4 15 -22 -12 3 24 -25 0
21 16 24 -22 -25 -4 6 -12 0
21 4 15 -22 24 3 -25 -16 0
25 16 21 22 24 6 -12 -7 0
12 21 24 -22 -25 15 6 -3 0
25 13 -21 24 -22 -4 6 -16 0
25 13 -21 24 -22 -4 6 -12 0
25 13 -21 24 -22 -4 15 6 0
21 -13 15 -22 -24 -25 -12 -16 0
12 25 -7 21 -22 -24 15 6 0
21 13 24 -22 -25 -16 -7 6 0
3 22 -21 25 4 -24 -12 15 0
12 4 24 -21 -25 -22 16 -6 0
25 12 21 22 24 15 -7 6 0
25 -6 -21 -24 13 -22 16 4 0
12 -6 -21 -24 25 -22 16 4 0
4 -24 -21 -15 25 -22 16 -6 0
25 16 21 22 24 -13 -3 6 0
7 22 24 -21 16 12 25 3 0
4 25 -22 24 -16 3 -21 -12 0
4 25 -21 24 3 -12 -22 -13 0
12 21 24 -22 -25 -4 15 6 0
16 -6 -21 22 -25 13 -24 7 0
3 7 -21 24 -25 -22 13 16 0
3 -13 -6 -24 -25 -22 -21 -16 0
3 -15 -21 25 -24 -22 4 12 0
25 16 -21 -24 22 -7 -12 6 0
3 -15 25 -21 -24 -22 7 12 0
7 -15 -21 25 -24 -22 4 12 0
12 3 -21 24 -25 -22 13 7 0
12 -6 -21 22 -25 13 -24 7 0
3 -15 -21 25 -24 -22 12 -6 0
7 -15 -21 25 -24 -22 13 -6 0
7 -15 -21 25 -24 -22 16 -6 0
7 -15 -21 25 -24 -22 12 -6 0
4 -24 -21 -15 25 -22 12 -6 0
4 21 25 -12 -16 -6 -24 -22 0
4 16 -21 24 -25 -22 3 13 0
7 12 -21 -24 25 -22 16 4 0
7 21 -22 16 -24 -25 -15 -6 0
12 7 -21 24 -25 -22 4 16 0
7 21 16 24 25 -22 4 -15 0
3 22 -21 24 -25 -16 -12 -6 0
3 7 21 -12 -24 15 -25 22 0
25 -6 -21 -24 22 7 15 -16 0
7 12 -21 -25 24 -22 3 16 0
7 -13 -6 21 -25 -24 22 -12 0
4 25 -21 24 3 -22 15 -16 0
4 22 24 -12 -16 -6 25 21 0
22 4 15 -21 24 3 -25 -13 0
3 21 22 -24 -6 25 16 13 0
22 -6 -21 24 16 25 13 3 0
25 -15 -3 -21 -24 22 -13 6 0
25 -15 -21 -24 22 -4 -13 6 0
25 -15 21 -22 -24 6 -13 -3 0
22 13 -21 24 -25 -16 -3 6 0
7 4 -21 -24 25 -22 13 12 0
12 -24 15 -21 -22 -25 6 -7 0
7 12 24 -22 -25 -21 13 -6 0
3 22 -21 -25 16 13 -24 4 0
7 12 -24 -21 25 -22 13 -6 0
3 -13 -6 -25 -12 21 24 -22 0
12 22 -21 24 25 13 -6 3 0
3 21 24 -22 16 25 7 -15 0
12 13 -21 -24 25 -22 -6 3 0
21 16 24 -22 -25 -4 15 6 0
22 13 -21 24 -25 -12 6 -3 0
-3 22 24 -21 -25 13 15 6 0
12 -6 21 -22 -24 -25 13 3 0
21 -6 24 -22 13 25 12 3 0
7 21 15 25 -22 -24 -6 -16 0
16 25 -3 -21 -24 22 -13 6 0
25 16 -21 -24 22 6 -12 -3 0
25 16 -21 -24 22 6 15 -3 0
-3 21 22 16 24 25 6 -12 0
12 22 21 -24 -25 15 6 -4 0
12 22 21 -24 -25 -13 6 -4 0
7 -13 15 -21 24 -22 -6 25 0
22 16 -21 24 -25 -7 -13 6 0
12 25 -21 -24 22 -13 6 -7 0
7 -24 22 21 3 25 13 -15 0
7 21 22 -24 -15 25 16 3 0
4 22 24 -21 -6 -13 -25 15 0
-3 21 22 -24 -25 16 15 6 0
3 -24 -21 -22 -25 -12 -6 15 0
16 -6 -21 22 -25 13 -24 4 0
16 -6 -21 22 24 25 -15 4 0
12 -15 22 -21 24 25 -6 4 0
25 16 21 22 24 -4 15 6 0
12 13 -21 -24 25 -22 -6 4 0
-24 -6 -21 -22 -25 -12 -13 4 0
4 21 22 -25 -24 -16 -6 -12 0
3 -13 -6 -21 22 25 -24 -16 0
4 -24 15 7 -25 -16 21 22 0
7 12 -21 22 -25 -24 3 16 0
12 25 -21 -22 -7 -16 24 6 0
3 22 -21 25 4 -24 15 -13 0
-24 -21 -12 -13 15 22 -25 -16 0
25 13 -21 -24 22 -7 -12 6 0
-24 16 -21 -22 -25 -12 -7 6 0
3 7 24 25 -22 -21 15 -16 0
4 -24 -22 -21 -25 3 -12 -13 0
7 3 -21 -22 -13 -12 -25 -24 0
4 21 24 25 13 -22 3 -15 0
3 21 24 16 25 -22 4 -15 0
12 -6 -21 -24 25 -22 16 3 0
7 12 -21 -24 25 -22 16 -6 0
22 -15 21 -24 -25 -12 -4 6 0
16 25 -4 -21 24 -22 -13 6 0
3 4 21 -22 -24 25 -12 15 0
4 12 -24 21 22 25 16 -6 0
4 12 21 -22 -25 -24 -6 16 0
7 -24 -21 25 13 -22 16 -6 0
7 -24 22 21 3 25 16 13 0
25 13 -21 -24 22 6 -16 -3 0
22 16 21 -24 -25 -4 -13 6 0
16 25 -4 -21 24 -22 6 -12 0
25 13 -21 -24 22 6 -12 -4 0
3 7 21 -22 -24 15 25 -16 0
3 7 -21 -22 -25 -16 -24 15 0
7 -15 -21 25 -24 -22 16 4 0
25 -6 -21 -24 13 -22 16 3 0
25 16 21 -22 -24 -13 -4 6 0
7 22 24 -21 16 12 25 -6 0
4 22 -21 7 -12 -25 24 -16 0
4 22 24 -6 15 25 21 -16 0
4 25 -21 24 -16 -22 7 -12 0
7 4 -21 -24 25 -22 16 13 0
25 13 -21 -15 -24 -22 4 7 0
7 21 24 -22 16 25 -6 -15 0
3 12 24 -22 -25 -21 13 -6 0
25 13 -21 -24 22 -4 15 6 0
7 4 -21 -24 -16 25 22 -12 0
4 22 24 -6 15 25 21 -12 0
3 -13 -6 -24 -25 -22 -21 -12 0
22 -6 -21 24 -25 3 -12 -13 0
4 25 -21 24 -16 -22 7 15 0
25 16 21 22 24 -4 6 -12 0
7 3 -21 22 -12 25 -24 15 0
3 -15 -21 25 -24 -22 13 -6 0
3 -15 24 25 21 -22 13 -6 0
22 13 24 -21 -15 25 -6 3 0
3 21 -13 -22 -24 -6 25 -12 0
3 12 -21 22 -25 4 -24 13 0
4 -24 -22 -21 -25 3 -13 -16 0
3 22 15 -21 24 -25 -6 -13 0
3 21 -13 -22 -24 -6 25 -16 0
25 -6 21 -22 -24 4 15 -12 0
25 -6 -21 -24 22 7 -12 15 0
12 -6 24 22 16 -21 25 4 0
7 12 -24 21 22 25 16 -6 0
-3 22 24 -25 16 -21 15 6 0
3 7 -21 22 24 -12 -25 15 0
-24 -15 -21 -22 -25 -4 -16 6 0
21 16 24 -22 -25 15 -7 6 0
22 -15 21 -24 -25 -4 -16 6 0
3 25 15 -21 24 -22 -6 -12 0
12 25 -21 -24 22 -4 -13 6 0
-24 4 15 -21 -22 -25 7 -12 0
4 -24 -13 -21 -22 -12 7 -25 0
4 25 -22 24 3 -21 -13 15 0
4 -6 -13 -21 25 15 -24 22 0
7 -24 22 21 4 25 16 13 0
4 22 -21 24 -6 -12 -25 15 0
7 4 24 -25 -22 -16 -12 21 0
7 3 24 -13 -25 -12 21 -22 0
4 21 24 -22 13 25 12 -6 0
-24 -21 -22 -25 -12 -6 15 4 0
4 21 24 -16 -25 -6 -22 15 0
7 21 24 -22 -16 -25 -12 -6 0
-24 16 -21 -22 -25 -4 -12 6 0
13 22 -4 -21 24 -25 6 -12 0
12 -6 21 -22 -24 -25 16 3 0
12 7 21 -22 -24 -25 13 3 0
12 7 21 -22 -24 3 -25 16 0
3 7 21 -24 -25 15 -16 22 0
4 25 15 -21 24 -22 -6 -13 0
-13 -6 -24 -25 -21 -22 15 4 0
3 -15 -21 25 -24 -22 4 16 0
-13 -6 -24 -25 -21 -22 4 -16 0
12 -24 -21 -22 -25 -7 -13 6 0
4 -6 -13 -22 -25 21 24 -16 0
4 -6 -13 -21 24 -16 -22 25 0
25 -15 21 22 24 -4 -16 6 0
12 25 -21 -24 22 6 15 -4 0
4 21 15 24 -22 -25 -6 -13 0
4 -24 -22 -21 -25 3 15 -13 0
4 25 -21 24 7 -22 15 -12 0
12 -6 -25 22 -21 -24 16 4 0
7 21 25 -22 4 -16 -24 -13 0
-24 -15 -21 -22 -25 -7 -16 6 0
12 -24 -21 -22 -25 6 15 -4 0
7 25 15 -21 24 -22 -6 -12 0
4 25 15 -21 24 -22 -6 -16 0
3 7 24 25 -22 -21 15 -12 0
4 -24 15 7 -25 -12 22 21 0
3 22 -21 15 25 7 -24 -16 0
-24 16 -21 -22 -25 -7 -13 6 0
12 -6 21 -25 24 22 16 4 0
4 -6 -13 -21 -16 22 25 -24 0
4 21 3 -12 -24 15 -25 22 0
12 4 22 -21 24 7 25 16 0
21 16 -15 -22 -24 -25 -6 3 0
4 -24 -22 3 -12 -21 -25 15 0
3 4 21 -22 -24 25 -16 15 0
22 16 21 -24 -25 -13 6 -7 0
21 16 24 -22 -25 -7 6 -12 0
25 13 -21 -24 22 -7 15 6 0
7 -24 15 -21 -22 -25 -6 -13 0
7 -24 15 -21 -22 -25 -16 -6 0
7 -24 -21 -22 -25 -12 -6 15 0
25 -15 -21 -24 22 -7 -12 6 0
3 -13 15 -21 -6 22 25 -24 0
12 22 -21 24 -25 6 -7 15 0
-24 -15 -21 -22 -25 -7 6 -13 0
-24 -15 -21 -22 -25 -12 -7 6 0
25 -15 -21 -24 22 6 -12 -4 0
25 -15 21 22 24 -16 -7 6 0
12 22 21 -24 -25 -13 6 -7 0
22 4 15 -21 24 3 -25 -12 0
4 -24 3 -25 22 15 -16 21 0
4 22 -21 24 3 -13 -25 -12 0
4 22 -21 24 -12 -25 3 -16 0
7 -13 -6 -21 -16 -22 24 25 0
16 -6 -21 22 24 25 -15 3 0
13 25 -3 -21 -24 22 6 15 0
3 7 -21 -22 -25 -16 -24 -13 0
-3 -15 21 -24 -25 22 -16 6 0
7 21 16 -24 -22 -25 -15 3 0
4 21 24 25 16 -22 -15 -6 0
21 16 24 -22 -25 -4 -13 6 0
12 4 24 -25 21 22 16 3 0
22 16 -21 24 -25 -7 -12 6 0
25 16 -21 24 -22 15 6 -4 0
22 16 -21 24 -25 -4 6 -12 0
4 -24 -15 22 21 25 16 3 0
21 16 24 -22 -25 -13 6 -3 0
7 -24 22 -25 21 -16 4 -13 0
22 4 15 -21 -25 -16 7 24 0
3 25 -21 -22 -16 24 -6 15 0
22 16 -21 24 -25 15 -7 6 0
3 12 -21 22 24 4 25 16 0
25 16 -21 24 -15 22 4 3 0
3 -24 15 -21 -22 -25 -16 -6 0
25 -15 -3 -21 22 -24 -16 6 0
7 -13 -6 -12 24 -22 21 -25 0
12 16 -21 24 -25 -22 -6 3 0
13 22 -4 -21 24 -25 -16 6 0
3 7 -13 -21 -22 -25 -24 15 0
4 21 22 -24 -6 25 16 -15 0
4 -24 -21 -22 -25 7 -16 -13 0
3 7 21 -22 25 -12 -24 -13 0
7 12 -21 -25 24 -22 16 -6 0
4 12 21 -22 -25 -24 -6 13 0
7 22 15 -21 24 -25 -16 -6 0
7 -13 -6 -21 -16 -25 -22 -24 0
3 -15 -21 25 -24 -22 16 -6 0
3 22 -21 24 -25 -12 -6 15 0
7 4 24 -16 -25 -13 -22 21 0
7 22 -21 24 -25 -12 -6 -16 0
4 -6 -13 24 -16 -25 22 -21 0
3 -13 -6 -24 -25 -22 -21 15 0
7 -24 22 -25 21 -12 4 -13 0
12 -6 -21 -25 13 22 -24 4 0
4 16 -21 24 -25 -22 13 -6 0
12 -6 -25 22 -21 -24 16 3 0
25 13 21 -22 -24 -16 -7 6 0
25 -15 21 -22 -24 -3 -16 6 0
3 7 21 -22 25 -16 -24 -13 0
12 4 21 -22 -25 -24 13 7 0
22 -15 -21 24 -25 -4 6 -16 0
3 22 -21 25 4 -13 -24 -12 0
22 -15 21 -24 -25 -12 6 -3 0
12 22 -21 24 -25 -7 -13 6 0
7 25 15 -21 24 -22 -6 -16 0
3 22 -21 24 -25 -16 -6 15 0
22 4 15 -21 24 -16 3 -25 0
4 -24 -21 -22 -25 -16 7 15 0
12 22 21 -24 -25 -7 6 15 0
22 16 21 -24 -25 -13 6 -3 0
3 4 -21 25 -24 -22 16 13 0
12 25 -21 -24 -22 16 4 3 0
22 4 15 -21 7 -25 24 -12 0
7 -24 -21 -22 -25 -12 -6 -13 0
7 21 -6 -24 22 25 16 13 0
22 -15 -21 24 -25 -16 6 -3 0
22 16 -21 24 -25 -13 6 -3 0
22 16 21 -24 -25 -4 15 6 0
-24 16 15 -21 -22 -25 -7 6 0
4 21 3 -24 -25 -16 22 -12 0
12 25 21 -22 -24 -16 -7 6 0
7 4 -21 -24 22 15 25 -16 0
3 -13 -6 -16 -25 -21 22 24 0
7 4 -21 -24 22 -12 25 15 0
-3 22 24 -25 -21 16 -12 6 0
25 -15 -21 -24 22 6 -13 -7 0
3 4 21 -22 -24 -25 16 12 0
3 -24 -21 -22 -16 -25 -12 -6 0
7 21 25 -12 -22 15 3 -24 0
4 -24 -21 25 -6 -22 -15 13 0
4 -24 -22 -21 -25 3 -16 15 0
4 -24 -22 -21 -25 3 -16 -12 0
3 7 21 -22 25 -12 -16 -24 0
4 -24 -21 25 13 -22 3 12 0
12 16 -21 -25 22 -24 4 7 0
25 -15 -21 -24 22 6 -12 -3 0
3 -24 -16 -12 25 -6 21 -22 0
12 3 -21 24 -25 -22 4 16 0
3 -24 -21 15 25 22 -6 -12 0
7 21 25 -22 -13 -24 3 15 0
25 12 21 22 24 -4 6 -16 0
7 25 -21 24 -12 -6 -22 -13 0
4 21 15 25 -22 -24 -6 -16 0
12 21 24 -22 -25 -7 15 6 0
16 -24 -4 -21 -22 -25 6 15 0
13 25 -3 -21 -24 22 -12 6 0
3 21 16 -25 -24 -6 -22 13 0
12 3 -21 -25 22 -24 4 16 0
4 -24 -21 -22 -25 7 15 -13 0
-3 21 22 16 24 25 15 6 0
4 25 -21 24 -22 -16 -6 -12 0
3 25 -21 -22 -16 24 -6 -12 0
4 -24 -21 15 25 22 -6 -16 0
4 22 15 -21 24 -16 -6 -25 0
4 21 24 25 13 -22 -15 -6 0
3 -24 -21 15 25 22 -6 -16 0
4 -24 -21 -22 -25 -16 -6 -12 0
3 -24 25 -16 -6 22 -21 -12 0
-3 -15 -22 -25 -21 -24 6 -13 0
-24 15 -21 -22 -25 -6 4 -16 0
3 7 -22 21 -25 -24 16 13 0
3 -13 -6 22 24 25 21 15 0
7 3 -21 -24 25 -22 13 12 0
3 21 22 -16 25 -6 24 15 0
3 21 15 24 -22 -25 -6 -13 0
21 24 -22 -12 -6 -25 3 15 0
25 13 21 -22 -24 -7 6 -12 0
7 21 24 -22 13 25 -6 -15 0
7 25 24 -21 16 22 -15 -6 0
25 -6 -21 -24 22 7 -12 -16 0
-24 13 -21 -22 -25 -7 -12 6 0
-3 -15 -22 -25 21 24 -12 6 0
7 -24 25 -16 -12 -6 21 -22 0
3 -13 -6 -21 22 25 -24 -12 0
7 4 -21 -25 22 16 13 -24 0
12 -24 -21 -22 -25 -4 -16 6 0
7 -24 22 21 4 25 13 -15 0
4 22 24 -21 -15 25 3 12 0
12 3 -21 22 -25 13 -24 7 0
7 3 -21 22 -25 16 -24 13 0
21 -15 24 -22 3 25 7 12 0
25 13 -21 24 -22 -7 -12 6 0
7 21 -13 15 -24 -25 4 22 0
12 -3 -22 -21 24 25 -16 6 0
25 -15 21 22 24 -7 -12 6 0
12 -3 -22 -21 24 25 -13 6 0
-3 6 15 -21 24 -22 -25 -16 -12 0
21 25 24 -7 -13 -12 15 -22 6 0
-13 15 -4 -21 24 -22 -25 -12 6 0
-24 25 -21 -22 -7 -13 -16 15 6 0
-3 -13 -21 24 -22 -25 6 -16 -12 0
-3 -13 15 -21 24 -22 -25 -12 6 0
22 25 -21 24 -4 6 -12 15 -16 0
21 22 -16 -12 25 -24 -4 6 15 0
21 22 24 -7 -13 -25 6 -12 15 0
-3 21 22 -16 -25 24 6 -12 15 0
25 22 -21 24 -7 -12 -13 6 15 0
21 22 24 -7 -13 -25 -16 15 6 0
21 22 24 -7 -25 -16 6 -12 15 0
-3 22 24 -21 -12 25 6 -16 15 0
22 25 -7 21 -16 -12 -24 15 6 0
-3 21 22 25 -12 -16 -24 15 6 0
-7 -13 15 -21 24 -22 -25 -12 6 0
-3 21 24 15 -12 25 -22 -16 6 0
-24 22 -21 -7 -13 15 -25 -16 6 0
-3 22 24 -21 25 6 -13 15 -16 0
-3 22 24 -21 -12 25 -13 15 6 0
-24 21 -4 -13 -22 15 -25 -16 6 0
-3 21 -13 15 -22 -24 -25 -16 6 0
-3 -24 -21 -22 -12 25 -13 6 15 0
-3 -24 -21 -22 25 -13 -16 15 6 0
-3 -24 -21 -22 -12 25 -16 6 15 0
-7 21 -13 -24 15 -22 -25 -12 6 0
21 22 -13 -25 -16 24 -4 15 6 0
-3 21 -13 15 -22 -24 -25 -12 6 0
-3 21 6 15 -22 -24 -25 -12 -16 0
-24 25 -21 -22 -7 -12 -13 6 15 0
-24 25 -21 -22 -7 -12 -16 6 15 0
-24 22 -21 -7 -13 15 -25 6 -12 0
-24 22 -21 -7 -12 6 15 -25 -16 0
-3 -24 -21 -13 -12 15 22 -25 6 0
-3 21 22 -13 -25 24 -16 -12 6 0
-3 21 22 -13 24 -25 6 -12 15 0
22 -24 -4 -21 -13 -12 15 -25 6 0
-3 21 22 25 -12 -16 -24 6 -13 0
-3 21 22 25 -16 -24 6 15 -13 0
25 -24 -4 -21 -22 -16 -12 15 6 0
25 21 -4 24 15 -12 -22 -16 6 0
-24 21 -4 -13 -22 15 -25 -12 6 0
-24 21 -4 6 -22 15 -25 -12 -16 0
22 25 -7 21 -16 -12 -24 6 -13 0
22 25 -7 21 -16 -24 6 15 -13 0
21 25 24 -7 -13 -12 -22 6 -16 0
21 25 24 -7 -12 15 -22 -16 6 0
22 25 -21 24 -4 6 -12 -13 -16 0
22 25 -21 24 -4 6 15 -13 -16 0
-3 21 24 -12 -13 25 -22 6 -16 0
-3 21 24 15 -13 6 25 -22 -16 0
21 25 24 -22 -4 6 -12 -13 -16 0
25 21 -4 24 -13 15 -22 -16 6 0
21 22 -16 25 -24 -4 6 15 -13 0
21 22 -12 25 -24 -4 6 15 -13 0
25 -24 -4 -21 -22 -16 -13 15 6 0
25 -24 -4 -21 -22 -12 -13 15 6 0
25 22 -21 24 -7 -13 6 15 -16 0
25 22 -21 24 -7 -12 6 15 -16 0
21 22 24 -25 6 -13 -4 15 -12 0
21 22 -25 -16 24 -4 -12 15 6 0
22 -24 -4 -21 -13 -12 -25 6 -16 0
22 -24 -4 -21 -12 6 15 -25 -16 0
-3 -24 -21 -12 -13 22 -25 6 -16 0
-3 -24 -21 -12 15 22 -25 -16 6 0
-7 21 -24 -13 -22 -25 -12 6 -16 0
-7 21 -24 15 -22 -25 -12 -16 6 0
-7 -13 -21 24 -22 -25 6 -16 -12 0
-7 6 15 -21 24 -22 -25 -16 -12 0
-13 6 -4 -21 24 -22 -25 -12 -16 0
-4 15 -21 24 -22 -25 -16 -12 6 0
